proyfinal/src/viki/013/andrea/andrea-localstore/experimentInOfficeAgust.take6/worker_8/410995da-86d7-44fc-87f4-05859b47f514.als.cnf.out
Reading from standard input... Use '--help' for help.
============================[ Problem Statistics ]=============================
|                                                                             |
|  Number of variables:         87638                                         |
|  Number of clauses:          161767                                         |
|  Parse time:                   0.04 s                                       |
|                                                                             |
============================[ Search Statistics ]==============================
| Conflicts |          ORIGINAL         |          LEARNT          | Progress |
|           |    Vars  Clauses Literals |    Limit  Clauses Lit/Cl |          |
===============================================================================
|       100 |   63348   108871   271276 |    39919      100     41 | 27.716 % |
|       250 |   63168   108151   269576 |    43911      237     54 | 27.922 % |
|       475 |   63168   108151   269576 |    48302      462     55 | 27.922 % |
|       812 |   63048   108031   269293 |    53132      794     71 | 28.059 % |
|      1318 |   63048   107671   268443 |    58445     1297     59 | 28.059 % |
|      2077 |   63018   107551   268160 |    64290     2055     64 | 28.093 % |
|      3216 |   63017   107507   268070 |    70719     3192     64 | 28.094 % |
|      4924 |   63017   107507   268070 |    77791     4900     64 | 28.094 % |
|      7486 |   62939   107193   267332 |    85570     7453     68 | 28.183 % |
|     11330 |   57643    90310   225806 |    94127    11269     73 | 34.226 % |
===============================================================================
restarts              : 62
conflicts             : 14689          (9486 /sec)
decisions             : 49150          (0.00 % random) (31742 /sec)
propagations          : 18573825       (11995154 /sec)
conflict literals     : 1021801        (43.15 % deleted)
Memory used           : 30.47 MB
CPU time              : 1.54844 s

INDETERMINATE
